<number of tasks>
20

<cycle time>
1000

<order strength>
0,2


<task times>
1 389
2 535
3 582
4 701
5 539
6 525
7 421
8 359
9 586
10 554
11 663
12 664
13 648
14 618
15 533
16 373
17 379
18 761
19 567
20 367

<precedence relations>
1,5
2,6
2,7
4,8
5,13
7,11
8,9
8,10
8,12
11,14
12,17
13,15
13,16
15,20
16,18
17,19

<end>
